(set-logic ALL)
(declare-fun i1 () Int)
(declare-fun it218 () Int)
(declare-fun i2 () Int)
(declare-fun it219 () Int)
(declare-fun i3 () Int)
(declare-fun it220 () Int)
(declare-fun i4 () Int)
(declare-fun it221 () Int)
(declare-fun i5 () Int)
(declare-fun it222 () Int)
(declare-fun i6 () Int)
(declare-fun it223 () Int)
(declare-fun it224 () Int)
(declare-fun it225 () Int)
(declare-fun it226 () Int)
(declare-fun it227 () Int)
(declare-fun it228 () Int)
(declare-fun it229 () Int)
(declare-fun it230 () Int)
(declare-fun it231 () Int)
(declare-fun it232 () Int)
(declare-fun it233 () Int)
(declare-fun it234 () Int)
(declare-fun it235 () Int)
(declare-fun it174 () Int)
(declare-fun it240 () Int)
(declare-fun it241 () Int)
(declare-fun it242 () Int)
(declare-fun it243 () Int)
(declare-fun it244 () Int)
(declare-fun it245 () Int)
(declare-fun it313 () Int)
(declare-fun it314 () Int)
(declare-fun it315 () Int)
(declare-fun it316 () Int)
(declare-fun it317 () Int)
(declare-fun it318 () Int)
(declare-fun it323 () Int)
(declare-fun it324 () Int)
(declare-fun it325 () Int)
(declare-fun it326 () Int)
(declare-fun it327 () Int)
(declare-fun it328 () Int)
(declare-fun it333 () Int)
(declare-fun it334 () Int)
(declare-fun it335 () Int)
(declare-fun it336 () Int)
(declare-fun it337 () Int)
(declare-fun it338 () Int)
(declare-fun it345 () Int)
(declare-fun it346 () Int)
(declare-fun it347 () Int)
(declare-fun it348 () Int)
(declare-fun it349 () Int)
(declare-fun it350 () Int)
(declare-fun it353 () Int)
(declare-fun it354 () Int)
(declare-fun it355 () Int)
(declare-fun it356 () Int)
(declare-fun it357 () Int)
(declare-fun it358 () Int)
(declare-fun it361 () Int)
(declare-fun it362 () Int)
(declare-fun it363 () Int)
(declare-fun it364 () Int)
(declare-fun it365 () Int)
(declare-fun it366 () Int)
(assert (= (+ i1 (- 1)) 0))
(assert (= (+ it218 (- 2)) 0))
(assert (= (+ it219 (* i2 (- 1)) (- 1)) 0))
(assert (= (+ it220 (* i3 (- 1))) 0))
(assert (= (+ it221 (* i4 (- 1))) 0))
(assert (= (+ it222 (* i5 (- 1))) 0))
(assert (= (+ it223 (* i6 (- 1))) 0))
(assert (and (>= (+ it220 (- 3)) 0) (= (+ it218 (- 2)) 0)))
(assert (= (+ it224 (- 5)) 0))
(assert (= (+ (* it219 (- 1)) it225 (- 2)) 0))
(assert (= (+ it226 (* it220 (- 1))) 0))
(assert (= it227 0))
(assert (= (+ it228 (* it222 (- 1))) 0))
(assert (= (+ it229 (* it223 (- 1))) 0))
(assert (and (= (+ it224 (- 5)) 0) (>= (+ it226 (* it227 (- 1)) (- 2)) 0)))
(assert (= (+ it230 (- 7)) 0))
(assert (= (+ it231 (* it225 (- 1)) (- 2)) 0))
(assert (= (+ it232 (* it226 (- 1))) 0))
(assert (= (+ it233 (* it227 (- 1))) 0))
(assert (= it234 0))
(assert (= (+ it235 (* it229 (- 1))) 0))
(assert (let ((a!1 (+ (+ 0 it232)
              (* (exp 2 it174) (+ 0 (- 2)))
              (+ 0 (* it233 (- 1)))
              (* (exp 2 (+ it174 (- 1))) (+ 0 it234) (+ 0 (- 2)))))
      (a!2 (>= (+ (+ it232 (* it233 (- 1)) (* it234 (- 2))) (- 4)) 0))
      (a!3 (>= (+ (+ it232 (* it233 (- 1)) (* it234 (- 2))) (- 3)) 0)))
  (and (>= a!1 (+ 0 0))
       a!2
       (>= (+ (* it230 (- 1)) 7) 0)
       (>= (+ a!1 (+ 0 1)) (+ 0 0))
       (>= (+ it230 (- 7)) 0)
       a!3
       (>= (+ it174 (- 1)) 0))))
(assert (= (+ (* it230 (- 1)) it240) 0))
(assert (= (+ it241 (* it174 (- 6)) (* it231 (- 1))) 0))
(assert (= (+ (* it232 (- 1)) it242) 0))
(assert (= (+ (* it233 (- 1)) it243) 0))
(assert (let ((a!1 (+ (+ 0 it244)
              (* (exp 2 it174) (+ 0 it234) (+ 0 (- 1)))
              (* (exp 2 (+ it174 1)) (+ 0 (- 1)))
              (+ 0 2))))
  (= a!1 (+ 0 0))))
(assert (let ((a!1 (+ (+ 0 it245)
              (* (exp 2 it174) (+ 0 (- 2)))
              (* (exp 2 (+ it174 (- 1))) (+ 0 it234) (+ 0 (- 2)))
              (+ 0 2))))
  (= a!1 (+ 0 0))))
(assert (let ((a!1 (>= (+ (+ it242 (* it243 (- 1))) (- 3)) 0))
      (a!2 (>= (+ (+ it242 (* it243 (- 1))) (- 5)) 0))
      (a!3 (>= (+ (+ it242 (* it243 (- 1))) (- 4)) 0)))
  (and (>= 2 0)
       (>= (+ (* it244 2) (* it242 (- 1)) it243 2) 0)
       (>= (+ (* it240 (- 1)) 7) 0)
       (>= 0 0)
       a!1
       (<= (+ (* it244 2) (* it242 (- 2)) (- 1)) 0)
       a!2
       a!3
       (>= (+ it240 (- 7)) 0))))
(assert (= (+ it313 (* it240 (- 1))) 0))
(assert (= (+ it314 (* it241 (- 1)) (* it242 (- 9)) (* it243 9) 36) 0))
(assert (= (+ it315 (* it242 (- 1))) 0))
(assert (= (+ (* it242 (- 1)) it316 4) 0))
(assert (= (+ (* it242 (- 1)) it317) 0))
(assert (= (+ it318 (- 1)) 0))
(assert (and (>= (+ (* it315 (- 1)) it316 (* it317 2) 2) 0) (= (+ it313 (- 7)) 0)))
(assert (= (+ it323 (- 5)) 0))
(assert (= (+ (* it314 (- 1)) it324 (- 2)) 0))
(assert (= (+ (* it315 (- 1)) it325) 0))
(assert (= (+ (* it316 (- 1)) it326 (- 1)) 0))
(assert (= (+ it327 (* it317 (- 1))) 0))
(assert (= (+ (* it318 (- 1)) it328) 0))
(assert (and (= (+ it323 (- 5)) 0) (>= (+ it325 (* it326 (- 1)) (- 2)) 0)))
(assert (= (+ it333 (- 7)) 0))
(assert (= (+ (* it324 (- 1)) it334 (- 2)) 0))
(assert (= (+ (* it325 (- 1)) it335) 0))
(assert (= (+ (* it326 (- 1)) it336) 0))
(assert (= it337 0))
(assert (= (+ (* it328 (- 1)) it338) 0))
(assert (and (= (+ it333 (- 7)) 0)
     (>= (+ (* it337 (- 2)) it335 (* it336 (- 1)) (- 3)) 0)))
(assert (= (+ it345 (- 8)) 0))
(assert (= (+ it346 (* it334 (- 1)) (- 1)) 0))
(assert (= (+ it347 (* it335 (- 1))) 0))
(assert (= (+ it348 (* it336 (- 1))) 0))
(assert (= (+ it349 (* it337 (- 1))) 0))
(assert (= (+ it350 (* it338 (- 1))) 0))
(assert (and (= (+ (* it349 (- 2)) it347 (* it348 (- 1)) (- 3)) 0)
     (= (+ it345 (- 8)) 0)))
(assert (= (+ it353 (- 13)) 0))
(assert (= (+ (* it346 (- 1)) it354 (- 2)) 0))
(assert (= (+ (* it347 (- 1)) it355) 0))
(assert (= (+ it356 (* it348 (- 1))) 0))
(assert (= (+ (* it349 (- 1)) it357) 0))
(assert (= (+ (* it349 (- 2)) it358 (- 1)) 0))
(assert (= (+ it353 (- 13)) 0))
(assert (= (+ it361 (- 7)) 0))
(assert (= (+ it362 (* it354 (- 1)) (- 2)) 0))
(assert (= (+ it363 (* it355 (- 1))) 0))
(assert (= (+ (* it356 (- 1)) it364) 0))
(assert (= (+ it365 (* it358 (- 1))) 0))
(assert (= (+ it366 (* it358 (- 1))) 0))
(check-sat)
